* ENCODING=ISO-8859-1
NAME          CPLEX
ROWS
 N  obj1    
 G  c1      
 G  c2      
 G  c3      
 G  c4      
 G  c5      
 G  c6      
 G  c7      
 G  c8      
 G  c9      
 G  c10     
 G  c11     
 G  c12     
 G  c13     
 G  c14     
 G  c15     
 G  c16     
 G  c17     
 G  c18     
 G  c19     
 G  c20     
 G  c21     
 G  c22     
 G  c23     
 G  c24     
 G  c25     
 G  c26     
 G  c27     
 G  c28     
 G  c29     
 G  c30     
 G  c31     
 G  c32     
 G  c33     
 G  c34     
 G  c35     
 G  c36     
 G  c37     
 G  c38     
 G  c39     
 G  c40     
COLUMNS
    MARK0000  'MARKER'                 'INTORG'
    x1        obj1                            1
    x1        c1                            495
    x1        c8                            936
    x1        c10                           826
    x1        c14                           186
    x1        c17                           689
    x1        c23                           618
    x1        c33                           621
    x2        obj1                            1
    x2        c1                            792
    x2        c6                            351
    x2        c36                           917
    x3        obj1                            1
    x3        c11                           431
    x3        c17                           260
    x3        c20                           231
    x3        c22                           644
    x3        c26                           613
    x3        c31                           990
    x3        c34                           615
    x4        obj1                            1
    x4        c6                            683
    x4        c9                            555
    x4        c10                           449
    x4        c18                           614
    x4        c24                           972
    x4        c38                           346
    x5        obj1                            1
    x5        c15                           997
    x5        c24                           856
    x5        c29                           804
    x5        c33                           129
    x5        c37                           442
    x5        c39                           235
    x6        obj1                            1
    x6        c7                            283
    x6        c10                           971
    x6        c34                           858
    x6        c38                           452
    x7        obj1                            1
    x7        c12                           490
    x7        c15                           118
    x7        c29                           812
    x7        c31                           452
    x8        obj1                            1
    x8        c7                            803
    x8        c18                           125
    x8        c36                           262
    x9        obj1                            1
    x9        c18                           109
    x9        c40                           915
    x10       obj1                            1
    x10       c8                            659
    x11       obj1                            1
    x11       c7                            378
    x11       c13                           568
    x11       c21                           851
    x11       c26                           796
    x11       c32                           619
    x12       obj1                            1
    x12       c17                           385
    x12       c19                           990
    x12       c38                           869
    x13       obj1                            1
    x13       c2                            397
    x13       c10                           659
    x13       c21                           804
    x13       c25                           824
    x13       c31                           118
    x14       obj1                            1
    x14       c7                            919
    x14       c8                            234
    x15       obj1                            1
    x15       c7                            407
    x15       c19                           336
    x15       c37                           573
    x16       obj1                            1
    x16       c5                            914
    x16       c14                           285
    x16       c18                           746
    x16       c23                           929
    x17       obj1                            1
    x17       c23                           322
    x17       c25                           821
    x17       c38                           687
    x18       obj1                            1
    x18       c2                            154
    x18       c9                            412
    x18       c16                           103
    x18       c24                           223
    x18       c30                           684
    x19       obj1                            1
    x19       c6                            679
    x19       c17                           821
    x19       c23                           405
    x19       c29                           857
    x19       c40                           510
    x20       obj1                            1
    x20       c4                            102
    x20       c15                           171
    x20       c20                           668
    x20       c25                           336
    x20       c26                           727
    x20       c40                           208
    x21       obj1                            1
    x21       c11                           765
    x21       c23                           232
    x21       c28                           785
    x21       c30                           883
    x21       c39                           499
    x22       obj1                            1
    x22       c25                           481
    x23       obj1                            1
    x23       c12                           310
    x23       c20                           879
    x23       c31                           968
    x23       c32                           591
    x23       c37                           475
    x24       obj1                            1
    x24       c16                           575
    x24       c22                           374
    x24       c23                           171
    x24       c24                           510
    x24       c32                           317
    x25       obj1                            1
    x25       c10                           845
    x25       c16                           105
    x25       c28                           816
    x26       obj1                            1
    x26       c9                            720
    x26       c21                           947
    x26       c29                           450
    x27       obj1                            1
    x27       c13                           708
    x27       c16                           586
    x27       c18                           524
    x27       c20                           933
    x28       obj1                            1
    x28       c6                            734
    x28       c20                           598
    x28       c36                           283
    x29       obj1                            1
    x29       c8                            659
    x29       c9                            152
    x29       c10                           463
    x29       c17                           863
    x29       c26                           221
    x29       c38                           739
    x30       obj1                            1
    x30       c33                           537
    x30       c36                           199
    x31       obj1                            1
    x31       c2                            984
    x31       c23                           898
    x31       c26                           670
    x31       c32                           550
    x32       obj1                            1
    x32       c2                            426
    x32       c13                           913
    x32       c16                           411
    x32       c39                           757
    x33       obj1                            1
    x33       c2                            440
    x33       c27                           476
    x33       c39                           865
    x33       c40                           401
    x34       obj1                            1
    x34       c7                            801
    x34       c16                           951
    x34       c20                           302
    x34       c23                           563
    x34       c32                           908
    x34       c33                           627
    x35       obj1                            1
    x35       c9                            634
    x35       c18                           307
    x35       c25                           120
    x35       c36                           940
    x36       obj1                            1
    x36       c1                            685
    x36       c3                            430
    x36       c13                           629
    x36       c20                           222
    x36       c28                           685
    x36       c32                           425
    x36       c38                           606
    x37       obj1                            1
    x37       c4                            841
    x37       c27                           414
    x38       obj1                            1
    x38       c25                           741
    x38       c39                           576
    x39       obj1                            1
    x39       c7                            926
    x39       c25                           381
    x40       obj1                            1
    x40       c34                           979
    x41       obj1                            1
    x41       c2                            318
    x41       c24                           162
    x41       c30                           862
    x41       c31                           206
    x42       obj1                            1
    x42       c9                            149
    x42       c21                           420
    x42       c28                           200
    x42       c32                           504
    x43       obj1                            1
    x43       c9                            281
    x43       c27                           850
    x43       c33                           434
    x44       obj1                            1
    x44       c21                           128
    x44       c25                           762
    x45       obj1                            1
    x45       c1                            262
    x45       c15                           818
    x45       c21                           248
    x45       c22                           901
    x45       c34                           322
    x45       c36                           704
    x45       c39                           267
    x46       obj1                            1
    x46       c13                           578
    x47       obj1                            1
    x47       c14                           514
    x47       c18                           535
    x47       c21                           410
    x47       c22                           193
    x47       c36                           197
    x48       obj1                            1
    x48       c4                            634
    x48       c31                           530
    x49       obj1                            1
    x49       c11                           622
    x49       c15                           620
    x49       c31                           302
    x49       c36                           129
    x50       obj1                            1
    x50       c8                            386
    x50       c16                           395
    x50       c20                           739
    x50       c36                           468
    x51       obj1                            1
    x51       c8                            920
    x51       c9                            502
    x51       c13                           840
    x51       c19                           830
    x51       c27                           404
    x51       c30                           358
    x51       c35                           658
    x52       obj1                            1
    x52       c2                            495
    x52       c18                           935
    x52       c30                           660
    x52       c32                           297
    x53       obj1                            1
    x53       c7                            167
    x53       c9                            558
    x54       obj1                            1
    x54       c7                            566
    x54       c8                            838
    x54       c15                           209
    x54       c16                           767
    x55       obj1                            1
    x55       c3                            457
    x55       c9                            814
    x55       c18                           559
    x55       c23                           970
    x55       c25                           871
    x55       c31                           166
    x56       obj1                            1
    x56       c10                           736
    x56       c23                           155
    x56       c29                           461
    x56       c39                           542
    x57       obj1                            1
    x57       c19                           860
    x57       c30                           574
    x57       c33                           449
    x57       c34                           624
    x57       c40                           654
    x58       obj1                            1
    x58       c3                            672
    x58       c15                           415
    x58       c26                           782
    x58       c32                           150
    x58       c33                           457
    x59       obj1                            1
    x59       c13                           169
    x60       obj1                            1
    x60       c4                            194
    x60       c37                           276
    x61       obj1                            1
    x61       c1                            185
    x61       c5                            882
    x61       c32                           406
    x62       obj1                            1
    x62       c5                            839
    x62       c11                           558
    x62       c36                           302
    x63       obj1                            1
    x63       c14                           535
    x63       c33                           886
    x63       c38                           837
    x64       obj1                            1
    x64       c12                           643
    x64       c14                           174
    x64       c17                           133
    x64       c19                           898
    x64       c31                           103
    x64       c39                           558
    x65       obj1                            1
    x65       c3                            794
    x65       c17                           719
    x66       obj1                            1
    x66       c21                           794
    x66       c29                           936
    x66       c38                           120
    x67       obj1                            1
    x67       c1                            250
    x67       c2                            907
    x67       c4                            848
    x67       c14                           943
    x67       c23                           921
    x67       c35                           974
    x67       c38                           348
    x68       obj1                            1
    x68       c12                           133
    x68       c14                           190
    x68       c16                           548
    x68       c18                           148
    x68       c21                           110
    x69       obj1                            1
    x69       c1                            714
    x69       c2                            723
    x69       c3                            164
    x70       obj1                            1
    x70       c1                            278
    x70       c6                            405
    x70       c9                            542
    x70       c13                           809
    x70       c17                           845
    x70       c19                           574
    x71       obj1                            1
    x71       c9                            957
    x71       c16                           876
    x71       c25                           633
    x71       c33                           733
    x71       c34                           246
    x71       c35                           610
    x71       c40                           447
    x72       obj1                            1
    x72       c5                            564
    x72       c7                            256
    x72       c8                            128
    x72       c35                           995
    x73       obj1                            1
    x73       c8                            744
    x73       c14                           722
    x73       c27                           208
    x73       c29                           862
    x74       obj1                            1
    x74       c11                           633
    x74       c13                           543
    x74       c14                           955
    x74       c16                           501
    x74       c21                           703
    x74       c29                           406
    x74       c30                           508
    x74       c33                           751
    x75       obj1                            1
    x75       c18                           851
    x75       c27                           946
    x76       obj1                            1
    x76       c15                           504
    x76       c18                           817
    x76       c31                           256
    x76       c38                           469
    x76       c40                           624
    x77       obj1                            1
    x77       c17                           676
    x77       c30                           181
    x77       c35                           951
    x78       obj1                            1
    x78       c2                            973
    x78       c38                           740
    x79       obj1                            1
    x79       c7                            226
    x79       c11                           939
    x79       c36                           596
    x80       obj1                            1
    x80       c22                           503
    x80       c26                           659
    x80       c30                           284
    x80       c39                           110
    MARK0001  'MARKER'                 'INTEND'
RHS
    rhs       c1                           1831
    rhs       c2                           2909
    rhs       c3                           1259
    rhs       c4                           1310
    rhs       c5                           1600
    rhs       c6                           1426
    rhs       c7                           2866
    rhs       c8                           2752
    rhs       c9                           3138
    rhs       c10                          2475
    rhs       c11                          1974
    rhs       c12                           788
    rhs       c13                          2879
    rhs       c14                          2252
    rhs       c15                          1926
    rhs       c16                          2909
    rhs       c17                          2696
    rhs       c18                          3135
    rhs       c19                          2244
    rhs       c20                          2286
    rhs       c21                          2708
    rhs       c22                          1308
    rhs       c23                          3092
    rhs       c24                          1362
    rhs       c25                          2985
    rhs       c26                          2234
    rhs       c27                          1649
    rhs       c28                          1243
    rhs       c29                          2794
    rhs       c30                          2497
    rhs       c31                          2046
    rhs       c32                          2384
    rhs       c33                          2812
    rhs       c34                          1822
    rhs       c35                          2094
    rhs       c36                          2499
    rhs       c37                           883
    rhs       c38                          3107
    rhs       c39                          2205
    rhs       c40                          1880
BOUNDS
 LI bnd       x1        0
 LI bnd       x2        0
 LI bnd       x3        0
 LI bnd       x4        0
 LI bnd       x5        0
 LI bnd       x6        0
 LI bnd       x7        0
 LI bnd       x8        0
 LI bnd       x9        0
 LI bnd       x10       0
 LI bnd       x11       0
 LI bnd       x12       0
 LI bnd       x13       0
 LI bnd       x14       0
 LI bnd       x15       0
 LI bnd       x16       0
 LI bnd       x17       0
 LI bnd       x18       0
 LI bnd       x19       0
 LI bnd       x20       0
 LI bnd       x21       0
 LI bnd       x22       0
 LI bnd       x23       0
 LI bnd       x24       0
 LI bnd       x25       0
 LI bnd       x26       0
 LI bnd       x27       0
 LI bnd       x28       0
 LI bnd       x29       0
 LI bnd       x30       0
 LI bnd       x31       0
 LI bnd       x32       0
 LI bnd       x33       0
 LI bnd       x34       0
 LI bnd       x35       0
 LI bnd       x36       0
 LI bnd       x37       0
 LI bnd       x38       0
 LI bnd       x39       0
 LI bnd       x40       0
 LI bnd       x41       0
 LI bnd       x42       0
 LI bnd       x43       0
 LI bnd       x44       0
 LI bnd       x45       0
 LI bnd       x46       0
 LI bnd       x47       0
 LI bnd       x48       0
 LI bnd       x49       0
 LI bnd       x50       0
 LI bnd       x51       0
 LI bnd       x52       0
 LI bnd       x53       0
 LI bnd       x54       0
 LI bnd       x55       0
 LI bnd       x56       0
 LI bnd       x57       0
 LI bnd       x58       0
 LI bnd       x59       0
 LI bnd       x60       0
 LI bnd       x61       0
 LI bnd       x62       0
 LI bnd       x63       0
 LI bnd       x64       0
 LI bnd       x65       0
 LI bnd       x66       0
 LI bnd       x67       0
 LI bnd       x68       0
 LI bnd       x69       0
 LI bnd       x70       0
 LI bnd       x71       0
 LI bnd       x72       0
 LI bnd       x73       0
 LI bnd       x74       0
 LI bnd       x75       0
 LI bnd       x76       0
 LI bnd       x77       0
 LI bnd       x78       0
 LI bnd       x79       0
 LI bnd       x80       0
ENDATA
